50 25
   1   -1   14    8    8    5   24   -1   15    7   -1    5   14    8    4   -1   11   -1   -1    0   10   -1   15   13    2   21   -1   -1    0   24    0    4   -1   -1   24   -1   -1   13   14   11   -1   -1   16   -1   -1   18   -1   -1   -1   21 
   0    1    5   13   14   17    5   23   -1   -1   -1   23   -1   16   -1   -1   -1   -1   -1   20   -1   -1    3    1    6   21   -1    6   -1   19   -1   -1   -1   17   24   24   -1   11   -1   -1   -1   -1   -1   -1   -1   24   -1   10   -1   -1 
   0    0    1   13   -1   -1   -1   17   -1   13    5   -1   -1   10   -1   22   22   21   -1   -1   16   -1    2   -1   12   -1   -1   -1   -1   -1   18    7   -1   13   -1   -1   -1    5   -1    0   -1   21   11   20   -1   -1   -1   -1   -1   14 
   0    0    0    1    0   21   -1   -1   -1    3   -1   23   -1    7   -1   23   -1   24   -1    1    0   -1   10    4   13    1   13   -1   10   -1   -1    1   -1    3   -1   -1   -1    0   -1   20   15   -1   10   -1   -1   22   -1   17    4   -1 
   0    0    0    0    1   -1   -1   -1   -1   -1   -1    1   -1   11   -1   -1    7   -1   19   -1   -1   -1   -1   19   -1    5   22    1   18   -1   11   -1    2    4    2   16   -1   -1   -1   -1   -1   -1    5   -1   10   -1   -1   22    8   -1 
   0    0    0    0    0    1   10   -1   22   16   18    5   -1   -1    0   -1   -1   13   13    3   -1   23   -1   -1   19    5   -1   -1   -1   18   -1   -1   -1   24    6    0   -1   23   23   17   -1   16   17   -1   -1   -1   13   -1   -1   15 
   0    0    0    0    0    0    1   24   -1   -1   -1   13   -1    8   -1   -1   20   -1   19   22   10    5   -1   19    4   -1   -1   -1   -1    6   -1    6   -1   -1    4   -1   -1   -1   -1    4   -1   12   -1   -1   -1   10   -1   -1   19   13 
   0    0    0    0    0    0    0    1   -1   17   -1   -1   12   -1   -1   -1   -1   23   17   -1   -1    2   24   24   -1   -1   21   -1   -1   10   -1   -1   -1   12   -1   21   -1   -1   -1   -1   -1    0   -1   -1    0   -1   22    0   -1   -1 
   0    0    0    0    0    0    0    0    1   13   14   20   24   -1    1   -1   10   16   15   17   -1   17   21   -1   -1   20   14   -1   -1   23    7    2    6    4   13   12   -1    5   -1   -1   -1   -1    8   23   11   18   -1    2   -1    9 
   0    0    0    0    0    0    0    0    0    1   -1   -1   20   -1   -1   -1   24   13    1   -1   -1   18   -1   12   -1   19   -1   -1   -1   12   11    5   -1   17   12   -1    2   -1   -1   -1    9   -1   20   -1   -1    3    4   21   -1   -1 
   0    0    0    0    0    0    0    0    0    0    1   23   -1    2    3   -1   14   21   -1   10    2   12   -1   -1   19    9   16   -1    5    9   10   10   -1   20    9   -1   18    7   -1   -1   13   -1   -1   23   -1   -1    4   21   -1   16 
   0    0    0    0    0    0    0    0    0    0    0    1   -1   -1   -1   -1   19   -1    7   -1   -1   15   -1   -1   -1   -1   14   -1   -1   24   13   -1   -1   -1   -1   -1   -1   16   -1   -1   -1    5   -1   -1   -1    5   -1   -1   -1   19 
   0    0    0    0    0    0    0    0    0    0    0    0    1   -1   -1    0   -1   18   19   10   -1   -1   -1   -1   13    5    6   15   -1   -1   -1   -1    1   -1   -1   -1   14   -1   -1   -1   -1    9   14    4   -1   -1   21   17   16   -1 
   0    0    0    0    0    0    0    0    0    0    0    0    0    1    9   12   -1   11   -1   -1   20   23   21    6   -1   -1   -1   20   17   23   18    9   14   -1   24   22   15   -1   -1   -1   -1   -1    9   -1   -1   -1    0    9   18   18 
   0    0    0    0    0    0    0    0    0    0    0    0    0    0    1   -1    6   13   17   10   24    9   -1    8   17   -1   17   23   -1   13    9   -1   22   -1   24    8   -1   -1   -1   -1    0   17   24   -1   -1   -1   -1   20   -1   -1 
   0    0    0    0    0    0    0    0    0    0    0    0    0    0    0    1   10   -1   -1   -1   -1    1   -1    6    1   20   -1   -1   13   11   -1   -1   10   18   -1   24   -1   21   -1   -1   -1   -1    8   -1    0   -1   -1   -1   -1   -1 
   0    0    0    0    0    0    0    0    0    0    0    0    0    0    0    0    1   16   -1    8   19   12   21    8   -1   23   -1    0    6   -1   -1   -1   18   11   -1   -1   17   -1   -1    0   -1   -1    0   -1   -1   -1    8    2   13   -1 
   0    0    0    0    0    0    0    0    0    0    0    0    0    0    0    0    0    1   16   -1   12   14    0   -1    6   -1   13    1   10   -1   -1   -1   -1   23   22    7    3   -1    6   20   -1   14    3   -1   14   17    4    8   21    3 
   0    0    0    0    0    0    0    0    0    0    0    0    0    0    0    0    0    0    1   22   -1    2   12   -1    1   -1   23   -1    9   -1   23   11   -1   -1   10    0   -1   -1   14    4    1   -1   -1   10   -1   20   -1   17   20   -1 
   0    0    0    0    0    0    0    0    0    0    0    0    0    0    0    0    0    0    0    1   -1    3    9    6   -1    0   -1   -1   -1   -1    8    0   14   19   -1   -1    4   19   -1    1   13   -1   -1    7   -1   -1   15   21   11    0 
   0    0    0    0    0    0    0    0    0    0    0    0    0    0    0    0    0    0    0    0    0    5   20   15    0   10   -1    2   10   -1   11    8   21   -1   -1   -1    7   24   23   -1   12   -1   15   20   -1   -1   -1   -1   -1   -1 
   0    0    0    0    0    0    0    0    0    0    0    0    0    0    0    0    0    0    0    0    0    0   -1   10   -1   -1   20    8   -1   -1   -1   22   -1   15    5   16   -1   -1   -1   -1    7   -1   -1   -1   18   24    7   19   17    1 
   0    0    0    0    0    0    0    0    0    0    0    0    0    0    0    0    0    0    0    0    0    0    0   -1   -1   20   24    0    1   13   -1   -1   20   23    3   12   -1   -1   20   17   -1   -1   -1    5   -1   18    5    1   -1   -1 
   0    0    0    0    0    0    0    0    0    0    0    0    0    0    0    0    0    0    0    0    0    0    0    0   -1   -1   13   19   14    7   -1   22   20   15    6   24   10   22   -1    0   -1    7    5   -1    6   -1   11   -1   -1    9 
   0    0    0    0    0    0    0    0    0    0    0    0    0    0    0    0    0    0    0    0    0    0    0    0    0    4   13   20    5   -1    9    7   17    7   24    6   -1    0   -1   24   -1   21   19   -1   -1   22   23   10   21   19 
   0    0    0    0    0    0    0    0    0    0    0    0    0    0    0    0    0    0    0    0    0    0    0    0    0    0   -1   -1    1   -1   -1    4   -1   22    5   -1    7   -1   16   -1   -1   20   -1   15   -1   -1   -1   -1   -1   20 
   0    0    0    0    0    0    0    0    0    0    0    0    0    0    0    0    0    0    0    0    0    0    0    0    0    0    0    8   15   -1   -1    7   -1    3   -1   13   19   13   10    1   -1   -1    7   -1    0   -1   20   -1   -1   -1 
   0    0    0    0    0    0    0    0    0    0    0    0    0    0    0    0    0    0    0    0    0    0    0    0    0    0    0    0   11   -1   -1   -1   -1   17   13   -1   -1   22   13   13   23   22   10   -1   -1   -1   -1    6   -1   17 
   0    0    0    0    0    0    0    0    0    0    0    0    0    0    0    0    0    0    0    0    0    0    0    0    0    0    0    0    0   -1   -1   11    6   21   -1   -1   -1   24   11    4   -1   -1    0   23   17    3   -1    0   16   -1 
   0    0    0    0    0    0    0    0    0    0    0    0    0    0    0    0    0    0    0    0    0    0    0    0    0    0    0    0    0    0    7   -1   14   -1   23   10   -1   -1   -1   -1   -1   10    1    6   13   -1   -1   13   -1   -1 
   0    0    0    0    0    0    0    0    0    0    0    0    0    0    0    0    0    0    0    0    0    0    0    0    0    0    0    0    0    0    0   -1   -1   19   -1   -1   18    3   13   -1   -1    6   -1   -1   -1   16    0   -1   16   -1 
   0    0    0    0    0    0    0    0    0    0    0    0    0    0    0    0    0    0    0    0    0    0    0    0    0    0    0    0    0    0    0    0   -1   22   14   -1    8   13   -1   -1   14   -1   22   -1    4    1   -1    6   23    1 
   0    0    0    0    0    0    0    0    0    0    0    0    0    0    0    0    0    0    0    0    0    0    0    0    0    0    0    0    0    0    0    0    0   -1    4   -1   -1   10   22   -1   15   -1   12   -1   -1   18   16   -1   -1   -1 
   0    0    0    0    0    0    0    0    0    0    0    0    0    0    0    0    0    0    0    0    0    0    0    0    0    0    0    0    0    0    0    0    0    0   12   -1   24   -1   -1   -1   15   18   -1   -1    2    6   23   -1    9   10 
   0    0    0    0    0    0    0    0    0    0    0    0    0    0    0    0    0    0    0    0    0    0    0    0    0    0    0    0    0    0    0    0    0    0    0   -1   -1    2    4   14   -1   14   -1    5    8   21   -1   -1    5    9 
   0    0    0    0    0    0    0    0    0    0    0    0    0    0    0    0    0    0    0    0    0    0    0    0    0    0    0    0    0    0    0    0    0    0    0    0   -1   -1   -1   -1    8   -1    1   18    4   15   11   -1   18   -1 
   0    0    0    0    0    0    0    0    0    0    0    0    0    0    0    0    0    0    0    0    0    0    0    0    0    0    0    0    0    0    0    0    0    0    0    0    0   -1   15   -1   24   20   20   21   22   -1   -1    3    7   -1 
   0    0    0    0    0    0    0    0    0    0    0    0    0    0    0    0    0    0    0    0    0    0    0    0    0    0    0    0    0    0    0    0    0    0    0    0    0    0    7   11   22   -1   23   -1   17   -1    6   -1   -1   -1 
   0    0    0    0    0    0    0    0    0    0    0    0    0    0    0    0    0    0    0    0    0    0    0    0    0    0    0    0    0    0    0    0    0    0    0    0    0    0    0    9   15   -1    2   -1   -1   19   23   13   -1   17 
   0    0    0    0    0    0    0    0    0    0    0    0    0    0    0    0    0    0    0    0    0    0    0    0    0    0    0    0    0    0    0    0    0    0    0    0    0    0    0    0   -1   23   16   -1   -1   12   -1   10    4   17 
   0    0    0    0    0    0    0    0    0    0    0    0    0    0    0    0    0    0    0    0    0    0    0    0    0    0    0    0    0    0    0    0    0    0    0    0    0    0    0    0    0   12   -1   -1    5   -1   -1   -1   -1   -1 
   0    0    0    0    0    0    0    0    0    0    0    0    0    0    0    0    0    0    0    0    0    0    0    0    0    0    0    0    0    0    0    0    0    0    0    0    0    0    0    0    0    0   15   -1   22    1   -1   10   -1   -1 
   0    0    0    0    0    0    0    0    0    0    0    0    0    0    0    0    0    0    0    0    0    0    0    0    0    0    0    0    0    0    0    0    0    0    0    0    0    0    0    0    0    0    0   24   20    1   -1   -1   -1   -1 
   0    0    0    0    0    0    0    0    0    0    0    0    0    0    0    0    0    0    0    0    0    0    0    0    0    0    0    0    0    0    0    0    0    0    0    0    0    0    0    0    0    0    0    0   -1   -1    6   23   16    2 
   0    0    0    0    0    0    0    0    0    0    0    0    0    0    0    0    0    0    0    0    0    0    0    0    0    0    0    0    0    0    0    0    0    0    0    0    0    0    0    0    0    0    0    0    0   -1   -1   -1    0   10 
   0    0    0    0    0    0    0    0    0    0    0    0    0    0    0    0    0    0    0    0    0    0    0    0    0    0    0    0    0    0    0    0    0    0    0    0    0    0    0    0    0    0    0    0    0    0   -1   -1   21   -1 
   0    0    0    0    0    0    0    0    0    0    0    0    0    0    0    0    0    0    0    0    0    0    0    0    0    0    0    0    0    0    0    0    0    0    0    0    0    0    0    0    0    0    0    0    0    0    0   -1    3   13 
   0    0    0    0    0    0    0    0    0    0    0    0    0    0    0    0    0    0    0    0    0    0    0    0    0    0    0    0    0    0    0    0    0    0    0    0    0    0    0    0    0    0    0    0    0    0    0    0   22   11 
   0    0    0    0    0    0    0    0    0    0    0    0    0    0    0    0    0    0    0    0    0    0    0    0    0    0    0    0    0    0    0    0    0    0    0    0    0    0    0    0    0    0    0    0    0    0    0    0    0   -1 
   0    0    0    0    0    0    0    0    0    0    0    0    0    0    0    0    0    0    0    0    0    0    0    0    0    0    0    0    0    0    0    0    0    0    0    0    0    0    0    0    0    0    0    0    0    0    0    0    0    0 
